c instance by G2
c solution = 100000010000110110111
c Known solution cost is 954 
p cnf 21 30
w 6 96 92 73 52 10 18 4 20 39 9 77 62 59 56 31 48 96 61 29 16
9 -17 21 0
-20 15 -12 0
-1 2 13 0
-6 -4 -21 0
-9 -16 8 0
2 4 -9 0
18 -10 -14 0
3 18 20 0
12 5 -11 0
3 9 -6 0
18 -7 12 0
-19 8 15 0
20 4 -14 0
-6 -15 -20 0
18 6 -2 0
-20 17 12 0
16 -12 -5 0
4 -3 -13 0
18 4 -5 0
-20 16 11 0
-14 5 -18 0
9 -15 -20 0
-19 14 10 0
-20 13 16 0
-6 10 -3 0
15 12 1 0
-14 11 -4 0
10 14 -20 0
-20 19 11 0
12 -6 -3 0
